TYPE : Vertex Cover
DIMENSION: 40
EDGE_DATA_SECTION:
0 4
0 8
0 9
0 14
0 20
0 25
0 30
0 33
0 39
1 3
1 6
1 9
1 10
1 12
1 13
1 14
1 17
1 19
1 23
1 29
1 31
1 37
1 38
2 6
2 7
2 9
2 13
2 15
2 25
2 26
2 27
2 30
2 33
2 34
2 35
2 36
2 38
3 4
3 6
3 7
3 8
3 13
3 14
3 15
3 17
3 20
3 22
3 23
3 25
3 29
3 31
3 32
3 33
3 36
4 5
4 9
4 11
4 16
4 17
4 18
4 23
4 25
4 26
4 30
4 34
4 36
4 38
4 39
5 6
5 8
5 10
5 16
5 17
5 18
5 21
5 23
5 31
5 32
5 34
5 36
5 39
6 8
6 9
6 21
6 28
6 31
6 33
6 34
7 10
7 12
7 16
7 26
7 28
7 30
7 33
7 34
7 35
7 37
7 38
8 9
8 10
8 12
8 18
8 23
8 24
8 30
8 31
8 33
8 36
8 37
8 39
9 10
9 14
9 18
9 25
9 28
10 11
10 18
10 20
10 25
10 27
10 30
10 36
10 38
11 17
11 18
11 21
11 22
11 25
11 28
11 30
11 31
11 33
12 14
12 17
12 20
12 27
13 15
13 16
13 25
13 27
13 30
13 31
13 32
13 33
14 15
14 21
14 22
14 30
14 33
14 34
14 35
14 39
15 18
15 19
15 20
15 21
15 24
15 28
15 34
15 35
15 37
15 38
16 19
16 27
16 30
16 38
16 39
17 18
17 19
17 20
17 31
17 38
18 19
18 24
18 29
18 31
18 33
18 35
19 20
19 26
19 27
19 28
19 29
19 37
20 21
20 24
20 25
20 27
20 33
20 34
20 36
21 23
21 29
21 32
22 23
22 24
22 28
22 30
22 32
22 35
22 36
22 37
23 25
23 30
23 31
23 34
24 28
24 29
24 34
24 38
25 26
25 32
26 29
26 30
26 31
26 33
26 34
26 35
26 37
26 39
27 28
27 31
27 33
27 34
27 35
27 38
28 31
28 33
28 35
28 39
29 33
29 38
30 31
30 35
30 37
30 39
31 32
31 36
31 37
31 38
32 34
32 37
32 38
35 39
36 37
36 38
36 39
37 38
37 39
38 39
-1
VERTEX_DEGREE:
9.0 14.0 14.0 18.0 16.0 14.0 11.0 13.0 16.0 11.0 13.0 11.0 7.0 11.0 13.0 14.0 9.0 11.0 14.0 11.0 14.0 9.0 11.0 11.0 9.0 12.0 13.0 13.0 13.0 9.0 17.0 18.0 10.0 15.0 13.0 11.0 12.0 13.0 16.0 13.0
VERTEX_COVER:
1 2 3 4 5 8 9 10 11 12 13 14 16 18 19 20 21 22 24 25 26 28 30 31 33 34 35 37 38 39
EOF
